; DUP1 CALLDATASIZE SUB DUP2 ADD => CALLDATASIZE
(set-option :produce-proofs true)
; 
(set-info :status unknown)
(declare-fun storage_t ((_ BitVec 256) (_ BitVec 256) Int (_ BitVec 256)) (_ BitVec 256))
(declare-fun storage_s ((_ BitVec 256) (_ BitVec 256) Int (_ BitVec 256)) (_ BitVec 256))
(declare-fun exc_halt_t (Int) Bool)
(declare-fun exc_halt_s (Int) Bool)
(declare-fun stack_t ((_ BitVec 256) (_ BitVec 256) Int (_ BitVec 6)) (_ BitVec 256))
(declare-fun stack_s ((_ BitVec 256) (_ BitVec 256) Int (_ BitVec 6)) (_ BitVec 256))
(declare-fun sc_t (Int) (_ BitVec 6))
(declare-fun sc_s (Int) (_ BitVec 6))
(declare-fun used_gas_t ((_ BitVec 256) (_ BitVec 256) Int) Int)
(declare-fun used_gas_s ((_ BitVec 256) (_ BitVec 256) Int) Int)
(assert
 (exists ((x_0 (_ BitVec 256)) (x_CALLDATASIZE (_ BitVec 256)) )(let (($x7728 (forall ((w (_ BitVec 256)) )(let ((?x11020 (storage_t x_0 x_CALLDATASIZE 1 w)))
 (let ((?x1097 (storage_s x_0 x_CALLDATASIZE 5 w)))
 (= ?x1097 ?x11020))))
 ))
 (let (($x3508 (exc_halt_t 1)))
 (let (($x11317 (exc_halt_s 5)))
 (let (($x10250 (= $x11317 $x3508)))
 (let (($x11434 (forall ((n (_ BitVec 6)) )(let ((?x493 (stack_t x_0 x_CALLDATASIZE 1 n)))
 (let ((?x9591 (stack_s x_0 x_CALLDATASIZE 5 n)))
 (let (($x9225 (= ?x9591 ?x493)))
 (let ((?x8347 (sc_t 1)))
 (let (($x7612 (bvsle ?x8347 n)))
 (or $x7612 $x9225)))))))
 ))
 (let ((?x8347 (sc_t 1)))
 (let ((?x4319 (sc_s 5)))
 (let (($x4882 (= ?x4319 ?x8347)))
 (let ((?x3169 (used_gas_t x_0 x_CALLDATASIZE 0)))
 (let ((?x4369 (used_gas_s x_0 x_CALLDATASIZE 0)))
 (let (($x11253 (= ?x4369 ?x3169)))
 (let (($x1949 (forall ((w (_ BitVec 256)) )(let ((?x290 (storage_t x_0 x_CALLDATASIZE 0 w)))
 (let ((?x10375 (storage_s x_0 x_CALLDATASIZE 0 w)))
 (= ?x10375 ?x290))))
 ))
 (let (($x56 (exc_halt_t 0)))
 (let (($x57 (exc_halt_s 0)))
 (let (($x58 (= $x57 $x56)))
 (let (($x10626 (forall ((n (_ BitVec 6)) )(let ((?x2187 (stack_t x_0 x_CALLDATASIZE 0 n)))
 (let ((?x7786 (stack_s x_0 x_CALLDATASIZE 0 n)))
 (let (($x9970 (= ?x7786 ?x2187)))
 (let ((?x63 (sc_t 0)))
 (let (($x4866 (bvsle ?x63 n)))
 (or $x4866 $x9970)))))))
 ))
 (let ((?x63 (sc_t 0)))
 (let ((?x72 (sc_s 0)))
 (let (($x73 (= ?x72 ?x63)))
 (let (($x9711 (= $x3508 (or $x56 (not (= ((_ extract 6 6) (bvadd (_ bv1 7) (concat (_ bv0 1) ?x63))) (_ bv0 1)))))))
 (let (($x10525 (forall ((w (_ BitVec 256)) )(let ((?x290 (storage_t x_0 x_CALLDATASIZE 0 w)))
 (let ((?x11020 (storage_t x_0 x_CALLDATASIZE 1 w)))
 (= ?x11020 ?x290))))
 ))
 (let (($x7915 (forall ((n (_ BitVec 6)) )(let ((?x63 (sc_t 0)))
 (let (($x4866 (bvsle ?x63 n)))
 (let ((?x2187 (stack_t x_0 x_CALLDATASIZE 0 n)))
 (let ((?x493 (stack_t x_0 x_CALLDATASIZE 1 n)))
 (let (($x1052 (= ?x493 ?x2187)))
 (or $x1052 $x4866)))))))
 ))
 (let (($x9556 (= ?x8347 (bvadd (_ bv1 6) ?x63))))
 (let (($x2101 (= $x11317 (or (exc_halt_s 4) (not (bvsle (_ bv0 6) (bvadd (_ bv62 6) (sc_s 4))))))))
 (let (($x7726 (forall ((w (_ BitVec 256)) )(let ((?x4464 (storage_s x_0 x_CALLDATASIZE 4 w)))
 (let ((?x1097 (storage_s x_0 x_CALLDATASIZE 5 w)))
 (= ?x1097 ?x4464))))
 ))
 (let (($x1692 (forall ((n (_ BitVec 6)) )(let ((?x4305 (sc_s 4)))
 (let ((?x9777 (bvadd (_ bv62 6) ?x4305)))
 (let (($x8463 (bvsle ?x9777 n)))
 (let ((?x5660 (stack_s x_0 x_CALLDATASIZE 4 n)))
 (let ((?x9591 (stack_s x_0 x_CALLDATASIZE 5 n)))
 (let (($x7526 (= ?x9591 ?x5660)))
 (or $x7526 $x8463))))))))
 ))
 (let ((?x4305 (sc_s 4)))
 (let ((?x9783 (bvadd (_ bv63 6) ?x4305)))
 (let (($x10649 (= ?x4319 ?x9783)))
 (let ((?x2764 (used_gas_s x_0 x_CALLDATASIZE 5)))
 (let (($x11328 (= ?x2764 (+ 3 (used_gas_s x_0 x_CALLDATASIZE 4)))))
 (let ((?x5215 (stack_s x_0 x_CALLDATASIZE 4 ?x9783)))
 (let ((?x3898 (bvadd (_ bv63 6) ?x4319)))
 (let ((?x436 (stack_s x_0 x_CALLDATASIZE 5 ?x3898)))
 (let (($x8520 (not (bvsle (_ bv0 6) (bvadd (_ bv62 6) (sc_s 3))))))
 (let (($x5486 (not (= ((_ extract 6 6) (bvadd (_ bv1 7) (concat (_ bv0 1) (sc_s 3)))) (_ bv0 1)))))
 (let (($x292 (exc_halt_s 3)))
 (let (($x7172 (exc_halt_s 4)))
 (let (($x4246 (forall ((w (_ BitVec 256)) )(let ((?x1857 (storage_s x_0 x_CALLDATASIZE 3 w)))
 (let ((?x4464 (storage_s x_0 x_CALLDATASIZE 4 w)))
 (= ?x4464 ?x1857))))
 ))
 (let (($x5503 (forall ((n (_ BitVec 6)) )(let ((?x275 (sc_s 3)))
 (let ((?x4190 (bvadd (_ bv62 6) ?x275)))
 (let (($x4079 (bvsle ?x4190 n)))
 (or $x4079 (= (stack_s x_0 x_CALLDATASIZE 4 n) (stack_s x_0 x_CALLDATASIZE 3 n)))))))
 ))
 (let (($x10411 (= ?x4305 (bvadd (_ bv1 6) (sc_s 3)))))
 (let ((?x10468 (used_gas_s x_0 x_CALLDATASIZE 4)))
 (let (($x4461 (= ?x10468 (+ 3 (used_gas_s x_0 x_CALLDATASIZE 3)))))
 (let ((?x275 (sc_s 3)))
 (let ((?x314 (bvadd (_ bv63 6) ?x275)))
 (let ((?x10491 (stack_s x_0 x_CALLDATASIZE 3 ?x314)))
 (let ((?x4190 (bvadd (_ bv62 6) ?x275)))
 (let ((?x6567 (stack_s x_0 x_CALLDATASIZE 3 ?x4190)))
 (let (($x8083 (= $x292 (or (exc_halt_s 2) (not (bvsle (_ bv0 6) (bvadd (_ bv62 6) (sc_s 2))))))))
 (let (($x3699 (forall ((w (_ BitVec 256)) )(let ((?x8687 (storage_s x_0 x_CALLDATASIZE 2 w)))
 (let ((?x1857 (storage_s x_0 x_CALLDATASIZE 3 w)))
 (= ?x1857 ?x8687))))
 ))
 (let (($x2900 (forall ((n (_ BitVec 6)) )(let ((?x218 (sc_s 2)))
 (let ((?x3067 (bvadd (_ bv62 6) ?x218)))
 (let (($x5606 (bvsle ?x3067 n)))
 (or $x5606 (= (stack_s x_0 x_CALLDATASIZE 3 n) (stack_s x_0 x_CALLDATASIZE 2 n)))))))
 ))
 (let ((?x218 (sc_s 2)))
 (let ((?x5789 (bvadd (_ bv63 6) ?x218)))
 (let (($x4278 (= ?x275 ?x5789)))
 (let ((?x6504 (used_gas_s x_0 x_CALLDATASIZE 3)))
 (let (($x9982 (= ?x6504 (+ 3 (used_gas_s x_0 x_CALLDATASIZE 2)))))
 (let ((?x9516 (stack_s x_0 x_CALLDATASIZE 2 ?x5789)))
 (let (($x6398 (= ?x10491 (bvadd ?x9516 (bvmul (_ bv115792089237316195423570985008687907853269984665640564039457584007913129639935 256) (stack_s x_0 x_CALLDATASIZE 2 (bvadd (_ bv62 6) ?x218)))))))
 (let (($x7355 (not (= ((_ extract 6 6) (bvadd (_ bv1 7) (concat (_ bv0 1) (sc_s 1)))) (_ bv0 1)))))
 (let (($x189 (exc_halt_s 1)))
 (let (($x247 (exc_halt_s 2)))
 (let (($x4838 (= $x247 (or $x189 $x7355))))
 (let (($x10070 (forall ((w (_ BitVec 256)) )(let ((?x1277 (storage_s x_0 x_CALLDATASIZE 1 w)))
 (let ((?x8687 (storage_s x_0 x_CALLDATASIZE 2 w)))
 (= ?x8687 ?x1277))))
 ))
 (let (($x7820 (forall ((n (_ BitVec 6)) )(let ((?x154 (sc_s 1)))
 (let (($x8986 (bvsle ?x154 n)))
 (let ((?x9292 (stack_s x_0 x_CALLDATASIZE 1 n)))
 (let ((?x377 (stack_s x_0 x_CALLDATASIZE 2 n)))
 (let (($x6282 (= ?x377 ?x9292)))
 (or $x6282 $x8986)))))))
 ))
 (let (($x513 (= ?x218 (bvadd (_ bv1 6) (sc_s 1)))))
 (let ((?x10668 (used_gas_s x_0 x_CALLDATASIZE 2)))
 (let (($x10071 (not (= ((_ extract 6 6) (bvadd (_ bv1 7) (concat (_ bv0 1) ?x72))) (_ bv0 1)))))
 (let (($x5823 (forall ((w (_ BitVec 256)) )(let ((?x10375 (storage_s x_0 x_CALLDATASIZE 0 w)))
 (let ((?x1277 (storage_s x_0 x_CALLDATASIZE 1 w)))
 (= ?x1277 ?x10375))))
 ))
 (let (($x4820 (forall ((n (_ BitVec 6)) )(let ((?x7786 (stack_s x_0 x_CALLDATASIZE 0 n)))
 (let ((?x9292 (stack_s x_0 x_CALLDATASIZE 1 n)))
 (let (($x5745 (= ?x9292 ?x7786)))
 (or $x5745 (bvsle (bvadd (_ bv63 6) (sc_s 0)) n))))))
 ))
 (let ((?x154 (sc_s 1)))
 (let (($x10046 (= ?x154 (bvadd (_ bv1 6) ?x72))))
 (let ((?x5364 (used_gas_s x_0 x_CALLDATASIZE 1)))
 (let (($x6205 (= ?x5364 (+ 3 ?x4369))))
 (let ((?x1990 (bvadd (_ bv63 6) ?x72)))
 (let ((?x6848 (stack_s x_0 x_CALLDATASIZE 0 ?x1990)))
 (let (($x3159 (forall ((w (_ BitVec 256)) )(let ((?x10375 (storage_s x_0 x_CALLDATASIZE 0 w)))
 (= ?x10375 (_ bv0 256))))
 ))
 (let (($x10670 (= ?x4369 0)))
 (let (($x1248 (not $x57)))
 (let (($x575 (= (stack_s x_0 x_CALLDATASIZE 0 (_ bv0 6)) x_0)))
 (let (($x8685 (= ?x72 (_ bv1 6))))
 (and $x8685 $x575 $x1248 $x10670 $x3159 (= (stack_s x_0 x_CALLDATASIZE 1 (bvadd (_ bv63 6) ?x154)) ?x6848) (= (stack_s x_0 x_CALLDATASIZE 1 ?x1990) ?x6848) $x6205 $x10046 $x4820 $x5823 (= $x189 (or $x57 $x10071 (not (bvsle (_ bv0 6) ?x1990)))) (= (stack_s x_0 x_CALLDATASIZE 2 ?x154) x_CALLDATASIZE) (= ?x10668 (+ 2 ?x5364)) $x513 $x7820 $x10070 $x4838 $x6398 $x9982 $x4278 $x2900 $x3699 $x8083 (= ?x5215 ?x6567) (= (stack_s x_0 x_CALLDATASIZE 4 ?x4190) ?x6567) (= (stack_s x_0 x_CALLDATASIZE 4 ?x314) ?x10491) $x4461 $x10411 $x5503 $x4246 (= $x7172 (or $x292 $x5486 $x8520)) (= ?x436 (bvadd ?x5215 (stack_s x_0 x_CALLDATASIZE 4 (bvadd (_ bv62 6) ?x4305)))) $x11328 $x10649 $x1692 $x7726 $x2101 (= (stack_t x_0 x_CALLDATASIZE 1 ?x63) x_CALLDATASIZE) (= (used_gas_t x_0 x_CALLDATASIZE 1) (+ 2 ?x3169)) $x9556 $x7915 $x10525 $x9711 $x73 $x10626 $x58 $x1949 $x11253 (not (and $x4882 $x11434 $x10250 $x7728))))))))))))))))))))))))))))))))))))))))))))))))))))))))))))))))))))))))))))))))))))
 )
(check-sat)
(get-proof)
